104890
0,9,28,63,72,44,79,61,69,13,66,75,25,35,65,70,19,8,76,16,57,73,31,81,39,32,26,6,55,50,71,80,59,46,48,33,56,42,2,11,22,54,41,24,68,14,5,60,77,40,51,38,62,82,7,27,78,34,29,1,37,15,10,74,43,21,4,67,58,52,3,49,64,30,23,18,47,20,53,45,12,17,36
